units metal
atom_style atomic
boundary p p p
read_data dispersion1.lammps

pair_style sw
pair_coeff * * /Users/tzhang/git/nemd/submodule/alamode/alamode/example/Si_LAMMPS/Si.sw Si
dump 1 all custom 1 dispersion1.dump id xu yu zu fx fy fz 
dump_modify 1 format float '%20.15f'
run 0
