units real
atom_style full
bond_style harmonic
angle_style harmonic
dihedral_style opls
improper_style cvff
pair_style lj/cut 11.0
pair_modify mix geometric
special_bonds lj/coul 0 0 0.5
read_data polymer_builder.data

timestep 1
thermo_modify flush yes
thermo 1000
dump 1 all custom 1000 dump.custom.gz id xu yu zu
dump_modify 1 sort id
min_style fire
minimize 1.0e-6 1.0e-8 1000000 10000000

velocity all create 10 482748
fix 1a all temp/berendsen 10 10 100
fix 1b all nve
run 10000
unfix 1b
unfix 1a

fix 2a all temp/berendsen 10 300 100
fix 2b all nve
run 100000
unfix 2b
unfix 2a

variable vol equal vol
fix 3a all ave/time 1 1000 1000 c_thermo_press v_vol file press_vol.data
variable amp equal "0.05*vol^(1/3)"
fix 3b all deform 1 x wiggle ${amp} 100000.0 y wiggle ${amp} 100000.0 z wiggle ${amp} 100000.0
fix 3c all temp/berendsen 300 300 100
fix 3d all nve
run 1000000
unfix 3d
unfix 3c
unfix 3b
unfix 3a

variable modulus python getModulus
python getModulus input 2 press_vol.data 100 return v_modulus format sif here "from nemd.pyfunc import getModulus"
print "Modulus = ${modulus}"

variable ave_press python getPress
python getPress input 1 press_vol.data return v_ave_press format sf here "from nemd.pyfunc import getPress"
print "Averaged Press = ${ave_press}"

fix 6a all press/berendsen iso ${ave_press} 1 1000 modulus ${modulus}
fix 6b all temp/berendsen 300 300 100
fix 6c all nve
run 1000000
unfix 6c
unfix 6b
unfix 6a

variable xl equal "xhi - xlo"
variable yl equal "yhi - ylo"
variable zl equal "zhi - zlo"
fix 7a all ave/time 1 1000 1000 v_xl v_yl v_zl file xyzl.data
fix 7b all press/berendsen iso 1.0 1 1000 modulus ${modulus}
fix 7c all temp/berendsen 300 300 100
fix 7d all nve
run 10000000
unfix 7d
unfix 7c
unfix 7b
unfix 7a

print "Final Boundary: xl = ${xl}, yl = ${yl}, zl = ${zl}"
variable ave_xl python getXL
python getXL input 1 xyzl.data return v_ave_xl format sf here "from nemd.pyfunc import getXL"
variable ave_yl python getYL
python getYL input 1 xyzl.data return v_ave_yl format sf here "from nemd.pyfunc import getYL"
variable ave_zl python getZL
python getZL input 1 xyzl.data return v_ave_zl format sf here "from nemd.pyfunc import getZL"
print "Averaged  xl = ${ave_xl} yl = ${ave_yl} zl = ${ave_zl}"

variable ave_xr equal "v_ave_xl / v_xl"
variable ave_yr equal "v_ave_yl / v_yl"
variable ave_zr equal "v_ave_zl / v_zl"
change_box all x scale ${ave_xr} y scale ${ave_yr} z scale ${ave_zr} remap
variable ave_xr delete
variable ave_yr delete
variable ave_zr delete
variable ave_xl delete
variable ave_yl delete
variable ave_zl delete
variable xl delete
variable yl delete
variable zl delete

fix 9a all temp/berendsen 300 300 100
fix 9b all nve
run 100000
unfix 9b
unfix 9a

fix 10a all nve
run 10000000
unfix 10a

